200
100 100
1 80 568
2 80 276
3 79 594
4 78 761
5 78 74
6 78 480
7 77 909
8 77 426
9 76 640
10 76 126
11 76 68
12 75 539
13 75 541
14 75 537
15 74 616
16 73 78
17 73 180
18 73 357
19 73 185
20 73 91
21 72 879
22 72 111
23 72 467
24 72 232
25 71 574
26 71 484
27 71 569
28 71 987
29 70 601
30 70 463
31 70 611
32 70 896
33 69 844
34 68 246
35 68 233
36 68 400
37 68 641
38 67 635
39 67 270
40 67 844
41 67 94
42 67 703
43 67 184
44 66 245
45 66 874
46 66 725
47 65 475
48 65 953
49 64 658
50 63 202
51 62 562
52 62 145
53 60 522
54 60 4
55 60 489
56 60 903
57 59 827
58 59 117
59 58 898
60 58 246
61 57 403
62 57 94
63 56 47
64 56 918
65 56 732
66 56 579
67 56 824
68 55 858
69 55 214
70 55 983
71 54 243
72 54 79
73 53 980
74 53 413
75 53 446
76 53 7
77 52 270
78 50 765
79 50 470
80 50 763
81 49 298
82 49 459
83 49 892
84 48 297
85 48 700
86 48 937
87 48 857
88 47 616
89 47 772
90 45 994
91 45 109
92 45 633
93 45 158
94 44 501
95 44 712
96 43 739
97 43 422
98 42 987
99 42 107
100 42 536
101 42 167
102 41 725
103 41 257
104 40 449
105 39 396
106 39 992
107 39 743
108 39 294
109 39 968
110 38 434
111 38 883
112 38 355
113 38 438
114 38 426
115 38 399
116 37 818
117 37 57
118 37 568
119 36 530
120 35 991
121 33 840
122 33 313
123 32 822
124 32 925
125 32 244
126 31 114
127 31 80
128 30 694
129 30 561
130 30 392
131 30 447
132 29 867
133 29 774
134 29 413
135 28 877
136 28 920
137 28 182
138 28 200
139 28 430
140 28 221
141 27 779
142 27 992
143 27 361
144 26 883
145 26 322
146 25 884
147 25 764
148 25 658
149 25 329
150 24 674
151 23 750
152 23 544
153 23 641
154 23 769
155 22 854
156 22 191
157 22 944
158 22 467
159 22 776
160 22 8
161 21 106
162 21 350
163 21 52
164 21 810
165 21 409
166 20 873
167 19 686
168 19 836
169 19 602
170 19 479
171 19 445
172 18 488
173 18 789
174 18 717
175 17 456
176 17 797
177 17 996
178 17 516
179 17 505
180 16 868
181 16 816
182 16 613
183 16 451
184 15 810
185 15 283
186 15 844
187 15 619
188 14 134
189 14 291
190 13 40
191 13 345
192 11 479
193 11 895
194 11 620
195 11 777
196 10 180
197 10 922
198 10 644
199 10 769
200 10 211
